c generated by sgen
p cnf 97 204
-2 -3 -4 0
-1 -3 -4 0
-1 -2 -4 0
-1 -2 -3 0
-6 -7 -8 0
-5 -7 -8 0
-5 -6 -8 0
-5 -6 -7 0
-10 -11 -12 0
-9 -11 -12 0
-9 -10 -12 0
-9 -10 -11 0
-14 -15 -16 0
-13 -15 -16 0
-13 -14 -16 0
-13 -14 -15 0
-18 -19 -20 0
-17 -19 -20 0
-17 -18 -20 0
-17 -18 -19 0
-22 -23 -24 0
-21 -23 -24 0
-21 -22 -24 0
-21 -22 -23 0
-26 -27 -28 0
-25 -27 -28 0
-25 -26 -28 0
-25 -26 -27 0
-30 -31 -32 0
-29 -31 -32 0
-29 -30 -32 0
-29 -30 -31 0
-34 -35 -36 0
-33 -35 -36 0
-33 -34 -36 0
-33 -34 -35 0
-38 -39 -40 0
-37 -39 -40 0
-37 -38 -40 0
-37 -38 -39 0
-42 -43 -44 0
-41 -43 -44 0
-41 -42 -44 0
-41 -42 -43 0
-46 -47 -48 0
-45 -47 -48 0
-45 -46 -48 0
-45 -46 -47 0
-50 -51 -52 0
-49 -51 -52 0
-49 -50 -52 0
-49 -50 -51 0
-54 -55 -56 0
-53 -55 -56 0
-53 -54 -56 0
-53 -54 -55 0
-58 -59 -60 0
-57 -59 -60 0
-57 -58 -60 0
-57 -58 -59 0
-62 -63 -64 0
-61 -63 -64 0
-61 -62 -64 0
-61 -62 -63 0
-66 -67 -68 0
-65 -67 -68 0
-65 -66 -68 0
-65 -66 -67 0
-70 -71 -72 0
-69 -71 -72 0
-69 -70 -72 0
-69 -70 -71 0
-74 -75 -76 0
-73 -75 -76 0
-73 -74 -76 0
-73 -74 -75 0
-78 -79 -80 0
-77 -79 -80 0
-77 -78 -80 0
-77 -78 -79 0
-82 -83 -84 0
-81 -83 -84 0
-81 -82 -84 0
-81 -82 -83 0
-86 -87 -88 0
-85 -87 -88 0
-85 -86 -88 0
-85 -86 -87 0
-90 -91 -92 0
-89 -91 -92 0
-89 -90 -92 0
-89 -90 -91 0
-93 -94 -95 0
-93 -94 -96 0
-93 -94 -97 0
-93 -95 -96 0
-93 -95 -97 0
-93 -96 -97 0
-94 -95 -96 0
-94 -95 -97 0
-94 -96 -97 0
-95 -96 -97 0
84 37 55 0
86 37 55 0
86 84 55 0
86 84 37 0
96 92 38 0
44 92 38 0
44 96 38 0
44 96 92 0
4 66 43 0
53 66 43 0
53 4 43 0
53 4 66 0
50 65 78 0
94 65 78 0
94 50 78 0
94 50 65 0
77 27 21 0
54 27 21 0
54 77 21 0
54 77 27 0
80 82 42 0
20 82 42 0
20 80 42 0
20 80 82 0
90 8 71 0
2 8 71 0
2 90 71 0
2 90 8 0
13 75 29 0
39 75 29 0
39 13 29 0
39 13 75 0
19 97 64 0
56 97 64 0
56 19 64 0
56 19 97 0
24 85 60 0
91 85 60 0
91 24 60 0
91 24 85 0
11 30 33 0
18 30 33 0
18 11 33 0
18 11 30 0
59 48 62 0
68 48 62 0
68 59 62 0
68 59 48 0
36 45 7 0
83 45 7 0
83 36 7 0
83 36 45 0
22 52 76 0
5 52 76 0
5 22 76 0
5 22 52 0
87 79 74 0
35 79 74 0
35 87 74 0
35 87 79 0
95 73 72 0
58 73 72 0
58 95 72 0
58 95 73 0
40 70 67 0
17 70 67 0
17 40 67 0
17 40 70 0
51 31 3 0
34 31 3 0
34 51 3 0
34 51 31 0
47 26 32 0
89 26 32 0
89 47 32 0
89 47 26 0
81 93 9 0
16 93 9 0
16 81 9 0
16 81 93 0
57 49 14 0
28 49 14 0
28 57 14 0
28 57 49 0
10 63 15 0
6 63 15 0
6 10 15 0
6 10 63 0
12 46 23 0
1 46 23 0
1 12 23 0
1 12 46 0
88 61 41 0
88 61 25 0
88 61 69 0
88 41 25 0
88 41 69 0
88 25 69 0
61 41 25 0
61 41 69 0
61 25 69 0
41 25 69 0
